python/teste/teste19
3 3
1 4 0 6 2 2
0 5 2 1 1 8
0 9 2 10 1 8
